/*********************************************
 * OPL 12.6.0.0 Data
 * Author: Adrian Rodriguez Bazaga, Pau Rodriguez Esmerats
 * Creation Date: 21/11/2017 at 20:50:29
 *********************************************/

nNurses=129;
maxConsec=2;
maxPresence=7;
maxHours=5;
minHours=1;
demand= [29 33 41 38 33 41 38 34 28 11 3 4 5 7 8 6 7 5 5 3 33 49 19 44  ];
